20758 12242 1586
21183 11817 1492
19860 14140 1635
16892 16108 1739
15741 17259 1697
19171 14829 1675
15460 17540 1667
17406 15594 1741
21729 9271 1226
14617 18383 1498
15434 16566 1746
21531 10469 1328
17790 15210 1740
12384 18616 1460
16538 17462 1519
17731 16269 1690
16118 16882 1718
11377 18623 1452
18484 14516 1737
18407 15593 1614
18945 14055 1727
19971 13029 1656
21545 9455 1337
14622 18378 1535
15033 17967 1615
16978 17022 1636
13422 18578 1516
13778 18222 1606
21500 10500 1351
13627 18373 1582
21267 11733 1461
16413 16587 1732
16577 17423 1540
13456 18544 1553
13890 17110 1715
20309 13691 1563
16827 17173 1612
15013 15987 1766
20234 13766 1582
12488 18512 1566
14059 17941 1636
20584 12416 1604
18883 15117 1680
21319 11681 1410
15711 15289 1767
21396 10604 1412
16632 15368 1757
14735 18265 1568
